letting n be 12
letting exclusions be [
]
letting assignments be [
[9, 6, 1, 6]
,
[4, 6, 2, 10]
,
[4, 4, 1, 5]
,
[4, 3, 2, 2]
,
[8, 2, 2, 5]
,
[7, 6, 1, 6]
,
[1, 5, 1, 4]
,
[10, 3, 2, 8]
,
[9, 3, 2, 8]
,
[7, 2, 1, 5]
]
